
Gurobi 12.0.2 (win64) logging started Fri Jun  6 10:10:31 2025

Set parameter LogFile to value "C:\Ioana\_uni\honours\slp\algorithm\Main_files\results\others\prox_tubules_new\Task_024_Sample002_irr_gurobi.log"
Gurobi Optimizer version 12.0.2 build v12.0.2rc0 (win64 - Windows 11.0 (26100.2))

CPU model: Intel(R) Core(TM) Ultra 5 125H, instruction set [SSE2|AVX|AVX2]
Thread count: 14 physical cores, 18 logical processors, using up to 18 threads

Non-default parameters:
TimeLimit  2200

Optimize a model with 47658 rows, 34803 columns and 147850 nonzeros
Model fingerprint: 0x8d0f2ba7
Variable types: 17409 continuous, 17394 integer (17394 binary)
Coefficient statistics:
  Matrix range     [1e-04, 8e+04]
  Objective range  [1e-04, 9e-01]
  Bounds range     [1e+00, 1e+03]
  RHS range        [1e+00, 1e+00]
Presolve removed 31202 rows and 21844 columns
Presolve time: 0.31s
Presolved: 16456 rows, 12959 columns, 54688 nonzeros
Variable types: 6413 continuous, 6546 integer (6546 binary)
Found heuristic solution: objective 20.0781491

Root relaxation: objective 3.630020e-03, 1892 iterations, 0.12 seconds (0.23 work units)

    Nodes    |    Current Node    |     Objective Bounds      |     Work
 Expl Unexpl |  Obj  Depth IntInf | Incumbent    BestBd   Gap | It/Node Time

     0     0    0.00363    0   10   20.07815    0.00363   100%     -    0s
H    0     0                       1.8892990    0.00363   100%     -    0s
H    0     0                       1.8804739    0.00363   100%     -    0s
H    0     0                       1.8804739    0.00363   100%     -    0s
     0     0    0.95447    0    9    1.88047    0.95447  49.2%     -    0s
     0     0    0.95553    0   10    1.88047    0.95553  49.2%     -    0s
     0     0    0.95755    0   10    1.88047    0.95755  49.1%     -    0s
     0     0    1.88047    0    6    1.88047    1.88047  0.00%     -    1s

Cutting planes:
  Learned: 1
  Gomory: 1
  Cover: 6
  MIR: 2
  Flow cover: 6
  Flow path: 1
  Network: 5
  Relax-and-lift: 1

Explored 1 nodes (3515 simplex iterations) in 1.19 seconds (1.43 work units)
Thread count was 18 (of 18 available processors)

Solution count 4: 1.88047 1.88047 1.8893 20.0781 

Optimal solution found (tolerance 1.00e-04)
Best objective 1.880473906550e+00, best bound 1.880473906406e+00, gap 0.0000%
